(set-info :smt-lib-version 2.6)
(set-logic QF_S)
(set-info :source |
Generated by: Murphy Berzish, Mitja Kulczynski, Federico Mora, Florin Manea, Joel Day, Dirk Nowotka, Vijay Ganesh, Zhengyang Lu
Generated on: 2020-10-01
Description: Translated from a collection of real-world regex queries, AutomataArk, collected by Loris D’Antoni and Fang Wang: https://github.com/lorisdanto/automatark
Application: Evaluate solvers on real-world regex queries
Target solver: Z3str3RE, CVC4, OSTRICH, Z3seq, Z3str3, Z3-Trau
Publications: Berzish, M., Kulczynski, M., Mora, F., Manea, F., Day, J. D., Nowotka, D., & Ganesh, V. (2021, July). An SMT solver for regular expressions and linear arithmetic over string length. In CAV 2021.
|)
(set-info :license "https://creativecommons.org/licenses/by/4.0/")
(set-info :category "industrial")
(set-info :status unsat)

(declare-const X String)
(assert (str.in_re X (str.to_re "comLOGUser-Agent:istsvcwww.oemji.comSystemSleuth\u{13}\u{a}")))
(assert (str.in_re X (re.++ (str.to_re "are") (re.+ (re.range "0" "9")) (str.to_re "Version") (re.+ (re.range "0" "9")) (str.to_re "JMailBoxHostGENERAL_PARAM2\u{a}"))))
(assert (not (str.in_re X (re.++ (str.to_re "/\u{f6}\u{ec}\u{d9}\u{b3}g\u{cf}\u{9e}={") ((_ re.loop 500 500) (str.to_re "\u{f6}\u{ec}\u{d9}\u{b3}g\u{cf}\u{9e}={")) (str.to_re "/m\u{a}")))))
(assert (not (str.in_re X (re.++ (str.to_re "<textarea") (re.* (re.union re.allchar (str.to_re "\u{a}"))) (str.to_re ">") (re.* (re.union re.allchar (str.to_re "\u{a}"))) (str.to_re "</textarea>\u{a}")))))
(assert (not (str.in_re X (re.++ (str.to_re "<") (re.* (re.union (str.to_re " ") (str.to_re "\u{9}"))) (re.union (str.to_re "i") (str.to_re "I")) (re.union (str.to_re "m") (str.to_re "M")) (re.union (str.to_re "g") (str.to_re "G")) (re.* (re.union (str.to_re " ") (str.to_re "\u{9}"))) (re.union (str.to_re "s") (str.to_re "S")) (re.union (str.to_re "r") (str.to_re "R")) (re.union (str.to_re "c") (str.to_re "C")) (re.* (re.union (str.to_re " ") (str.to_re "\u{9}"))) (str.to_re "=") (re.* (re.union (str.to_re " ") (str.to_re "\u{9}"))) (re.union (str.to_re "'") (str.to_re "\u{22}")) (re.+ (re.union (str.to_re "'") (str.to_re "\u{22}"))) (str.to_re "\u{a}")))))
(check-sat)

(exit)
